2380447
0 1 106843
1 2 14475.9
2 16 20583.2
16 12 27808.3
12 8 45504.9
8 10 112115
10 4 43367.4
4 13 90180.2
13 7 61569.7
7 14 67784.3
14 18 105167
18 9 246240
9 15 21150.6
15 3 223221
3 17 394451
17 19 142430
19 5 207524
5 11 255761
11 6 158459
6 0 35812.9
